(set-logic HORN)

(declare-fun |state| ( Int Int Int Int Int Int Int Int Int Int Bool Bool Bool Bool Bool Bool Bool Bool Bool Bool Bool Bool Bool Bool Bool Int Int Bool Bool Int Int Int Int Int Int Int Int Int Int Int Int Int Int Int Int Int Int Int Int Int Int Int Int Int Int Int Int Int Int Int Int Int Int Int Int Bool Bool Int Bool Int Bool Int Bool Int Int Int Int Int Int Int Int Int Int Int Int Int Int Int Bool Bool Bool Bool Int Bool Bool Bool Bool Bool Bool Bool Int Int Int Bool Bool Int Int Int Int Int Int Int Int Int Int Int Int Int Bool Bool Bool Bool Bool Int Int Int Int Int Bool Bool Bool Bool Bool Bool Bool ) Bool)

(assert
  (forall ( (A Int) (B Int) (C Int) (D Int) (E Int) (F Int) (G Int) (H Int) (I Int) (J Int) (K Bool) (L Bool) (M Bool) (N Bool) (O Bool) (P Bool) (Q Bool) (R Bool) (S Bool) (T Bool) (U Bool) (V Bool) (W Bool) (X Bool) (Y Bool) (Z Int) (A1 Int) (B1 Bool) (C1 Bool) (D1 Int) (E1 Int) (F1 Int) (G1 Int) (H1 Int) (I1 Int) (J1 Int) (K1 Int) (L1 Int) (M1 Int) (N1 Int) (O1 Int) (P1 Int) (Q1 Int) (R1 Int) (S1 Int) (T1 Int) (U1 Int) (V1 Int) (W1 Int) (X1 Int) (Y1 Int) (Z1 Int) (A2 Int) (B2 Int) (C2 Int) (D2 Int) (E2 Int) (F2 Int) (G2 Int) (H2 Int) (I2 Int) (J2 Int) (K2 Int) (L2 Int) (M2 Int) (N2 Bool) (O2 Bool) (P2 Int) (Q2 Bool) (R2 Int) (S2 Bool) (T2 Int) (U2 Bool) (V2 Int) (W2 Int) (X2 Int) (Y2 Int) (Z2 Int) (A3 Int) (B3 Int) (C3 Int) (D3 Int) (E3 Int) (F3 Int) (G3 Int) (H3 Int) (I3 Int) (J3 Int) (K3 Bool) (L3 Bool) (M3 Bool) (N3 Bool) (O3 Int) (P3 Bool) (Q3 Bool) (R3 Bool) (S3 Bool) (T3 Bool) (U3 Bool) (V3 Bool) (W3 Int) (X3 Int) (Y3 Int) (Z3 Bool) (A4 Bool) (B4 Int) (C4 Int) (D4 Int) (E4 Int) (F4 Int) (G4 Int) (H4 Int) (I4 Int) (J4 Int) (K4 Int) (L4 Int) (M4 Int) (N4 Int) (O4 Bool) (P4 Bool) (Q4 Bool) (R4 Bool) (S4 Bool) (T4 Int) (U4 Int) (V4 Int) (W4 Int) (X4 Int) (Y4 Bool) (Z4 Bool) (A5 Bool) (B5 Bool) (C5 Bool) (D5 Bool) (E5 Bool) ) 
    (=>
      (and
        (let ((a!1 (= (or (and (not M)
                       (not N)
                       (not O)
                       (not P)
                       (not Q)
                       (not R)
                       (not S)
                       (not T)
                       (not U)
                       (not V)
                       (not W)
                       (not X))
                  (and (not M)
                       (not N)
                       (not O)
                       (not P)
                       (not Q)
                       (not R)
                       (not S)
                       (not T)
                       (not U)
                       (not V)
                       (not W)
                       X)
                  (and (not M)
                       (not N)
                       (not O)
                       (not P)
                       (not Q)
                       (not R)
                       (not S)
                       (not T)
                       (not U)
                       (not V)
                       W
                       (not X))
                  (and (not M)
                       (not N)
                       (not O)
                       (not P)
                       (not Q)
                       (not R)
                       (not S)
                       (not T)
                       (not U)
                       V
                       (not W)
                       (not X))
                  (and (not M)
                       (not N)
                       (not O)
                       (not P)
                       (not Q)
                       (not R)
                       (not S)
                       (not T)
                       U
                       (not V)
                       (not W)
                       (not X))
                  (and (not M)
                       (not N)
                       (not O)
                       (not P)
                       (not Q)
                       (not R)
                       (not S)
                       T
                       (not U)
                       (not V)
                       (not W)
                       (not X))
                  (and (not M)
                       (not N)
                       (not O)
                       (not P)
                       (not Q)
                       (not R)
                       S
                       (not T)
                       (not U)
                       (not V)
                       (not W)
                       (not X))
                  (and (not M)
                       (not N)
                       (not O)
                       (not P)
                       (not Q)
                       R
                       (not S)
                       (not T)
                       (not U)
                       (not V)
                       (not W)
                       (not X))
                  (and (not M)
                       (not N)
                       (not O)
                       (not P)
                       Q
                       (not R)
                       (not S)
                       (not T)
                       (not U)
                       (not V)
                       (not W)
                       (not X))
                  (and (not M)
                       (not N)
                       (not O)
                       P
                       (not Q)
                       (not R)
                       (not S)
                       (not T)
                       (not U)
                       (not V)
                       (not W)
                       (not X))
                  (and (not M)
                       (not N)
                       O
                       (not P)
                       (not Q)
                       (not R)
                       (not S)
                       (not T)
                       (not U)
                       (not V)
                       (not W)
                       (not X))
                  (and (not M)
                       N
                       (not O)
                       (not P)
                       (not Q)
                       (not R)
                       (not S)
                       (not T)
                       (not U)
                       (not V)
                       (not W)
                       (not X))
                  (and M
                       (not N)
                       (not O)
                       (not P)
                       (not Q)
                       (not R)
                       (not S)
                       (not T)
                       (not U)
                       (not V)
                       (not W)
                       (not X)))
              Y))
      (a!2 (= (or (not N2) (not (<= 1 R2)) (not (<= 1 J3))) R3))
      (a!3 (or (not N2)
               (= (+ J
                     (* (- 1) P2)
                     (* (- 1) R2)
                     (* (- 1) T2)
                     (* (- 1) J3)
                     (* (- 1) O3))
                  0)))
      (a!4 (= K (and Y (not (<= N4 0))))))
  (and (= L1 0)
       (= L1 M1)
       (= K1 J3)
       (= J1 0)
       (= J1 K1)
       (= I1 T2)
       (= H1 0)
       (= H1 I1)
       (= G1 0)
       (= F1 R2)
       (= F1 G1)
       (= D1 P2)
       (= D1 E1)
       (= A1 E1)
       (= Z N4)
       (= Z A1)
       (= I N4)
       (= I J)
       (= G N4)
       (= G H)
       (= E N4)
       (= E F)
       (= C N4)
       (= C D)
       (= A N4)
       (= A B)
       a!1
       a!2
       (= a!3 T3)
       (= (or (not N2) (<= 0 O3)) P3)
       (= (or (not N2) (<= 0 J3)) Q3)
       (= (or (not N2) (<= 0 T2)) N3)
       (= (or (not N2) (<= 0 R2)) M3)
       (= (or (not N2) (<= 0 P2)) L3)
       (= (or (not N2) (<= J3 H)) K3)
       (= (or (not N2) (<= T2 F)) U2)
       (= (or (not N2) (<= R2 1)) S3)
       (= (or (not N2) (<= R2 D)) S2)
       (= (or (not N2) (<= P2 B)) Q2)
       (= (or (not N2) U3) V3)
       (= (or (not N2) (not O2)) Z3)
       (= (and Q2 S2 U2 K3 L3 M3 N3 P3 Q3 R3 S3 T3 V3 Z3) A4)
       (= C1 O2)
       (= B1 C1)
       (= L N2)
       a!4
       (= K L)
       (= B1 (<= 2 M1))
       (or (not S4) (= Z1 0))
       (or (not S4) (= V1 0))
       (or (not R4) (= L4 0))
       (or (not Q4) (= F4 0))
       (or (not P4) (= C4 1))
       (or (not O4) (= G3 0))
       (or (not O4) (= A3 1))
       (or (not O4) (= X2 0))
       (or (not X) (= F3 U4))
       (or (not X) (= I2 T4))
       (or (not W) (= Z2 V4))
       (or W (= G2 I2))
       (or (not W) (= G2 H2))
       (or (not V) (= C3 W4))
       (or (not V) (= J2 K2))
       (or V (= G2 J2))
       (or (not U) (= W2 X4))
       (or (not U) (= L2 M2))
       (or U (= J2 L2))
       (or (not T) (= H3 I3))
       (or (not T) (= E3 G3))
       (or T (= E3 F3))
       (or (not T) (= B3 D3))
       (or T (= B3 C3))
       (or (not T) (= Y2 A3))
       (or T (= Y2 Z2))
       (or (not T) (= V2 X2))
       (or T (= V2 W2))
       (or T (= L2 H3))
       (or (not S) (= X3 Y3))
       (or S (= V2 Y3))
       (or (not S) (= X1 W3))
       (or S (= X1 H3))
       (or (not R) (= D4 E4))
       (or (not R) (= B4 C4))
       (or R (= B3 D4))
       (or R (= Y2 B4))
       (or (not Q) (= G4 H4))
       (or Q (= Y3 H4))
       (or (not Q) (= R1 F4))
       (or Q (= R1 D4))
       (or (not P) (= K4 M4))
       (or P (= H4 K4))
       (or (not P) (= O1 L4))
       (or P (= O1 B4))
       (or O (= B2 K4))
       (or (not O) (= B2 J4))
       (or (not O) (= U1 I4))
       (or O (= U1 E3))
       (or (not N) (= E2 F2))
       (or (not N) (= C2 D2))
       (or N (= W1 E2))
       (or N (= T1 C2))
       (or M (= A2 B2))
       (or (not M) (= Z1 A2))
       (or (not M) (= W1 Y1))
       (or M (= W1 X1))
       (or (not M) (= T1 V1))
       (or M (= T1 U1))
       (or (not M) (= Q1 S1))
       (or M (= Q1 R1))
       (or (not M) (= N1 P1))
       (or M (= N1 O1))
       (= U3 true)
       (= M1 O3)))
      )
      (state A
       B
       C
       D
       E
       F
       G
       H
       I
       J
       K
       L
       M
       N
       O
       P
       Q
       R
       S
       T
       U
       V
       W
       X
       Y
       Z
       A1
       B1
       C1
       D1
       E1
       F1
       G1
       H1
       I1
       J1
       K1
       L1
       M1
       N1
       O1
       P1
       Q1
       R1
       S1
       T1
       U1
       V1
       W1
       X1
       Y1
       Z1
       A2
       B2
       C2
       D2
       E2
       F2
       G2
       H2
       I2
       J2
       K2
       L2
       M2
       N2
       O2
       P2
       Q2
       R2
       S2
       T2
       U2
       V2
       W2
       X2
       Y2
       Z2
       A3
       B3
       C3
       D3
       E3
       F3
       G3
       H3
       I3
       J3
       K3
       L3
       M3
       N3
       O3
       P3
       Q3
       R3
       S3
       T3
       U3
       V3
       W3
       X3
       Y3
       Z3
       A4
       B4
       C4
       D4
       E4
       F4
       G4
       H4
       I4
       J4
       K4
       L4
       M4
       N4
       O4
       P4
       Q4
       R4
       S4
       T4
       U4
       V4
       W4
       X4
       Y4
       Z4
       A5
       B5
       C5
       D5
       E5)
    )
  )
)
(assert
  (forall ( (A Int) (B Int) (C Int) (D Int) (E Int) (F Int) (G Int) (H Int) (I Int) (J Int) (K Bool) (L Bool) (M Bool) (N Bool) (O Bool) (P Bool) (Q Bool) (R Bool) (S Bool) (T Bool) (U Bool) (V Bool) (W Bool) (X Bool) (Y Bool) (Z Int) (A1 Int) (B1 Bool) (C1 Bool) (D1 Int) (E1 Int) (F1 Int) (G1 Int) (H1 Int) (I1 Int) (J1 Int) (K1 Int) (L1 Int) (M1 Int) (N1 Int) (O1 Int) (P1 Int) (Q1 Int) (R1 Int) (S1 Int) (T1 Int) (U1 Int) (V1 Int) (W1 Int) (X1 Int) (Y1 Int) (Z1 Int) (A2 Int) (B2 Int) (C2 Int) (D2 Int) (E2 Int) (F2 Int) (G2 Int) (H2 Int) (I2 Int) (J2 Int) (K2 Int) (L2 Int) (M2 Int) (N2 Bool) (O2 Bool) (P2 Int) (Q2 Bool) (R2 Int) (S2 Bool) (T2 Int) (U2 Bool) (V2 Int) (W2 Int) (X2 Int) (Y2 Int) (Z2 Int) (A3 Int) (B3 Int) (C3 Int) (D3 Int) (E3 Int) (F3 Int) (G3 Int) (H3 Int) (I3 Int) (J3 Int) (K3 Bool) (L3 Bool) (M3 Bool) (N3 Bool) (O3 Int) (P3 Bool) (Q3 Bool) (R3 Bool) (S3 Bool) (T3 Bool) (U3 Bool) (V3 Bool) (W3 Int) (X3 Int) (Y3 Int) (Z3 Bool) (A4 Bool) (B4 Int) (C4 Int) (D4 Int) (E4 Int) (F4 Int) (G4 Int) (H4 Int) (I4 Int) (J4 Int) (K4 Int) (L4 Int) (M4 Int) (N4 Int) (O4 Bool) (P4 Bool) (Q4 Bool) (R4 Bool) (S4 Bool) (T4 Int) (U4 Int) (V4 Int) (W4 Int) (X4 Int) (Y4 Bool) (Z4 Bool) (A5 Bool) (B5 Bool) (C5 Bool) (D5 Bool) (E5 Bool) (F5 Int) (G5 Int) (H5 Int) (I5 Int) (J5 Int) (K5 Int) (L5 Int) (M5 Int) (N5 Int) (O5 Int) (P5 Bool) (Q5 Bool) (R5 Bool) (S5 Bool) (T5 Bool) (U5 Bool) (V5 Bool) (W5 Bool) (X5 Bool) (Y5 Bool) (Z5 Bool) (A6 Bool) (B6 Bool) (C6 Bool) (D6 Bool) (E6 Int) (F6 Int) (G6 Bool) (H6 Bool) (I6 Int) (J6 Int) (K6 Int) (L6 Int) (M6 Int) (N6 Int) (O6 Int) (P6 Int) (Q6 Int) (R6 Int) (S6 Int) (T6 Int) (U6 Int) (V6 Int) (W6 Int) (X6 Int) (Y6 Int) (Z6 Int) (A7 Int) (B7 Int) (C7 Int) (D7 Int) (E7 Int) (F7 Int) (G7 Int) (H7 Int) (I7 Int) (J7 Int) (K7 Int) (L7 Int) (M7 Int) (N7 Int) (O7 Int) (P7 Int) (Q7 Int) (R7 Int) (S7 Bool) (T7 Bool) (U7 Int) (V7 Bool) (W7 Int) (X7 Bool) (Y7 Int) (Z7 Bool) (A8 Int) (B8 Int) (C8 Int) (D8 Int) (E8 Int) (F8 Int) (G8 Int) (H8 Int) (I8 Int) (J8 Int) (K8 Int) (L8 Int) (M8 Int) (N8 Int) (O8 Int) (P8 Bool) (Q8 Bool) (R8 Bool) (S8 Bool) (T8 Int) (U8 Bool) (V8 Bool) (W8 Bool) (X8 Bool) (Y8 Bool) (Z8 Bool) (A9 Bool) (B9 Int) (C9 Int) (D9 Int) (E9 Bool) (F9 Bool) (G9 Int) (H9 Int) (I9 Int) (J9 Int) (K9 Int) (L9 Int) (M9 Int) (N9 Int) (O9 Int) (P9 Int) (Q9 Int) (R9 Int) (S9 Int) (T9 Bool) (U9 Bool) (V9 Bool) (W9 Bool) (X9 Bool) (Y9 Bool) (Z9 Bool) (A10 Bool) (B10 Bool) (C10 Bool) (D10 Bool) (E10 Bool) (F10 Int) (G10 Int) (H10 Int) (I10 Int) (J10 Int) ) 
    (=>
      (and
        (state A
       B
       C
       D
       E
       F
       G
       H
       I
       J
       K
       L
       M
       N
       O
       P
       Q
       R
       S
       T
       U
       V
       W
       X
       Y
       Z
       A1
       B1
       C1
       D1
       E1
       F1
       G1
       H1
       I1
       J1
       K1
       L1
       M1
       N1
       O1
       P1
       Q1
       R1
       S1
       T1
       U1
       V1
       W1
       X1
       Y1
       Z1
       A2
       B2
       C2
       D2
       E2
       F2
       G2
       H2
       I2
       J2
       K2
       L2
       M2
       N2
       O2
       P2
       Q2
       R2
       S2
       T2
       U2
       V2
       W2
       X2
       Y2
       Z2
       A3
       B3
       C3
       D3
       E3
       F3
       G3
       H3
       I3
       J3
       K3
       L3
       M3
       N3
       O3
       P3
       Q3
       R3
       S3
       T3
       U3
       V3
       W3
       X3
       Y3
       Z3
       A4
       B4
       C4
       D4
       E4
       F4
       G4
       H4
       I4
       J4
       K4
       L4
       M4
       N4
       O4
       P4
       Q4
       R4
       S4
       T4
       U4
       V4
       W4
       X4
       Y4
       Z4
       A5
       B5
       C5
       D5
       E5)
        (let ((a!1 (= (or (and (not M)
                       (not N)
                       (not O)
                       (not P)
                       (not Q)
                       (not R)
                       (not S)
                       (not T)
                       (not U)
                       (not V)
                       (not W)
                       (not X))
                  (and (not M)
                       (not N)
                       (not O)
                       (not P)
                       (not Q)
                       (not R)
                       (not S)
                       (not T)
                       (not U)
                       (not V)
                       (not W)
                       X)
                  (and (not M)
                       (not N)
                       (not O)
                       (not P)
                       (not Q)
                       (not R)
                       (not S)
                       (not T)
                       (not U)
                       (not V)
                       W
                       (not X))
                  (and (not M)
                       (not N)
                       (not O)
                       (not P)
                       (not Q)
                       (not R)
                       (not S)
                       (not T)
                       (not U)
                       V
                       (not W)
                       (not X))
                  (and (not M)
                       (not N)
                       (not O)
                       (not P)
                       (not Q)
                       (not R)
                       (not S)
                       (not T)
                       U
                       (not V)
                       (not W)
                       (not X))
                  (and (not M)
                       (not N)
                       (not O)
                       (not P)
                       (not Q)
                       (not R)
                       (not S)
                       T
                       (not U)
                       (not V)
                       (not W)
                       (not X))
                  (and (not M)
                       (not N)
                       (not O)
                       (not P)
                       (not Q)
                       (not R)
                       S
                       (not T)
                       (not U)
                       (not V)
                       (not W)
                       (not X))
                  (and (not M)
                       (not N)
                       (not O)
                       (not P)
                       (not Q)
                       R
                       (not S)
                       (not T)
                       (not U)
                       (not V)
                       (not W)
                       (not X))
                  (and (not M)
                       (not N)
                       (not O)
                       (not P)
                       Q
                       (not R)
                       (not S)
                       (not T)
                       (not U)
                       (not V)
                       (not W)
                       (not X))
                  (and (not M)
                       (not N)
                       (not O)
                       P
                       (not Q)
                       (not R)
                       (not S)
                       (not T)
                       (not U)
                       (not V)
                       (not W)
                       (not X))
                  (and (not M)
                       (not N)
                       O
                       (not P)
                       (not Q)
                       (not R)
                       (not S)
                       (not T)
                       (not U)
                       (not V)
                       (not W)
                       (not X))
                  (and (not M)
                       N
                       (not O)
                       (not P)
                       (not Q)
                       (not R)
                       (not S)
                       (not T)
                       (not U)
                       (not V)
                       (not W)
                       (not X))
                  (and M
                       (not N)
                       (not O)
                       (not P)
                       (not Q)
                       (not R)
                       (not S)
                       (not T)
                       (not U)
                       (not V)
                       (not W)
                       (not X)))
              Y))
      (a!2 (= (or (and (not R5)
                       (not S5)
                       (not T5)
                       (not U5)
                       (not V5)
                       (not W5)
                       (not X5)
                       (not Y5)
                       (not Z5)
                       (not A6)
                       (not B6)
                       (not C6))
                  (and (not R5)
                       (not S5)
                       (not T5)
                       (not U5)
                       (not V5)
                       (not W5)
                       (not X5)
                       (not Y5)
                       (not Z5)
                       (not A6)
                       (not B6)
                       C6)
                  (and (not R5)
                       (not S5)
                       (not T5)
                       (not U5)
                       (not V5)
                       (not W5)
                       (not X5)
                       (not Y5)
                       (not Z5)
                       (not A6)
                       B6
                       (not C6))
                  (and (not R5)
                       (not S5)
                       (not T5)
                       (not U5)
                       (not V5)
                       (not W5)
                       (not X5)
                       (not Y5)
                       (not Z5)
                       A6
                       (not B6)
                       (not C6))
                  (and (not R5)
                       (not S5)
                       (not T5)
                       (not U5)
                       (not V5)
                       (not W5)
                       (not X5)
                       (not Y5)
                       Z5
                       (not A6)
                       (not B6)
                       (not C6))
                  (and (not R5)
                       (not S5)
                       (not T5)
                       (not U5)
                       (not V5)
                       (not W5)
                       (not X5)
                       Y5
                       (not Z5)
                       (not A6)
                       (not B6)
                       (not C6))
                  (and (not R5)
                       (not S5)
                       (not T5)
                       (not U5)
                       (not V5)
                       (not W5)
                       X5
                       (not Y5)
                       (not Z5)
                       (not A6)
                       (not B6)
                       (not C6))
                  (and (not R5)
                       (not S5)
                       (not T5)
                       (not U5)
                       (not V5)
                       W5
                       (not X5)
                       (not Y5)
                       (not Z5)
                       (not A6)
                       (not B6)
                       (not C6))
                  (and (not R5)
                       (not S5)
                       (not T5)
                       (not U5)
                       V5
                       (not W5)
                       (not X5)
                       (not Y5)
                       (not Z5)
                       (not A6)
                       (not B6)
                       (not C6))
                  (and (not R5)
                       (not S5)
                       (not T5)
                       U5
                       (not V5)
                       (not W5)
                       (not X5)
                       (not Y5)
                       (not Z5)
                       (not A6)
                       (not B6)
                       (not C6))
                  (and (not R5)
                       (not S5)
                       T5
                       (not U5)
                       (not V5)
                       (not W5)
                       (not X5)
                       (not Y5)
                       (not Z5)
                       (not A6)
                       (not B6)
                       (not C6))
                  (and (not R5)
                       S5
                       (not T5)
                       (not U5)
                       (not V5)
                       (not W5)
                       (not X5)
                       (not Y5)
                       (not Z5)
                       (not A6)
                       (not B6)
                       (not C6))
                  (and R5
                       (not S5)
                       (not T5)
                       (not U5)
                       (not V5)
                       (not W5)
                       (not X5)
                       (not Y5)
                       (not Z5)
                       (not A6)
                       (not B6)
                       (not C6)))
              D6))
      (a!3 (= (or (not N2) (not (<= 1 R2)) (not (<= 1 J3))) R3))
      (a!4 (= (or (not S7) (not (<= 1 W7)) (not (<= 1 O8))) W8))
      (a!5 (or (not N2)
               (= (+ J
                     (* (- 1) P2)
                     (* (- 1) R2)
                     (* (- 1) T2)
                     (* (- 1) J3)
                     (* (- 1) O3))
                  0)))
      (a!6 (or (not S7)
               (= (+ N5
                     (* (- 1) U7)
                     (* (- 1) W7)
                     (* (- 1) Y7)
                     (* (- 1) O8)
                     (* (- 1) T8))
                  0)))
      (a!7 (and (<= 1 D1) (= F1 0) (= I1 0) (= K1 0) (= M1 0)))
      (a!8 (= (and (<= 1 D1) (<= 2 (+ F1 I1 K1 M1))) D10))
      (a!9 (= (and (<= 1 D1) (<= 1 (+ F1 I1 K1 M1))) X9))
      (a!10 (= Z8
               (= (+ P2
                     R2
                     T2
                     J3
                     O3
                     (* (- 1) U7)
                     (* (- 1) W7)
                     (* (- 1) Y7)
                     (* (- 1) O8)
                     (* (- 1) T8))
                  0)))
      (a!11 (or L (and D6 (not (<= S9 0)))))
      (a!12 (or (not C10) (= (+ M1 (* (- 1) N9)) 1)))
      (a!13 (or (not C10) (= (+ F1 (* (- 1) O9)) (- 1))))
      (a!14 (or (not B10) (= (+ F1 (* (- 1) R9)) (- 1))))
      (a!15 (or (not A10) (= (+ F1 (* (- 1) M9)) (- 1))))
      (a!16 (or (not Z9) (= (+ I1 K1 (* (- 1) I9)) 1)))
      (a!17 (or (not Y9) (= (+ F1 (* (- 1) D9)) (- 1))))
      (a!18 (or (not Y9) (= (+ D1 (* (- 1) B9)) 1)))
      (a!19 (or (not E10) (= (+ M1 (* (- 1) I7)) (- 1))))
      (a!20 (or (not E10) (= (+ D1 (* (- 1) J7)) 1)))
      (a!21 (or (not D10) (= (+ K1 M1 (* (- 1) X6)) (- 1))))
      (a!22 (or (not D10) (= (+ F1 I1 (* (- 1) U6)) 0)))
      (a!23 (or (not D10) (= (+ D1 (* (- 1) D7)) 1)))
      (a!24 (or (not X9) (= (+ F1 I1 K1 M1 (* (- 1) I8)) 0)))
      (a!25 (or (not X9) (= (+ D1 (* (- 1) M8)) 1)))
      (a!26 (or (not W9) (= (+ F1 (* (- 1) F10)) 1)))
      (a!27 (or (not W9) (= (+ D1 (* (- 1) Q7)) (- 1))))
      (a!28 (or (not V9) (= (+ K1 (* (- 1) H10)) 1)))
      (a!29 (or (not V9) (= (+ D1 (* (- 1) O7)) (- 1))))
      (a!30 (or (not U9) (= (+ I1 (* (- 1) G10)) 1)))
      (a!31 (or (not U9) (= (+ D1 (* (- 1) L7)) (- 1))))
      (a!32 (or (not T9) (= (+ M1 (* (- 1) I10)) 1)))
      (a!33 (or (not T9) (= (+ D1 (* (- 1) J10)) (- 1)))))
  (and (= L1 M1)
       (= K1 J3)
       (= J1 K1)
       (= I1 T2)
       (= H1 I1)
       (= F1 R2)
       (= F1 G1)
       (= D1 P2)
       (= D1 E1)
       (= A1 F6)
       (= Z A1)
       (= J O5)
       (= I J)
       (= H M5)
       (= G H)
       (= F K5)
       (= E F)
       (= D I5)
       (= C D)
       (= B G5)
       (= A B)
       (= R6 H7)
       (= Q6 T8)
       (= Q6 R6)
       (= P6 W6)
       (= O6 O8)
       (= O6 P6)
       (= N6 T6)
       (= M6 Y7)
       (= M6 N6)
       (= L6 W7)
       (= K6 E7)
       (= K6 L6)
       (= J6 U7)
       (= I6 K7)
       (= I6 J6)
       (= E6 F6)
       (= N5 O5)
       (= L5 M5)
       (= J5 K5)
       (= H5 I5)
       (= F5 G5)
       (= (<= 1 M1) C10)
       (= (<= 1 M1) T9)
       (= (<= 1 K1) V9)
       (= (<= 1 I1) U9)
       (= (<= 1 F1) W9)
       a!1
       a!2
       a!3
       a!4
       (= a!5 T3)
       (= (or (not N2) (<= 0 O3)) P3)
       (= (or (not N2) (<= 0 J3)) Q3)
       (= (or (not N2) (<= 0 T2)) N3)
       (= (or (not N2) (<= 0 R2)) M3)
       (= (or (not N2) (<= 0 P2)) L3)
       (= (or (not N2) (<= J3 H)) K3)
       (= (or (not N2) (<= T2 F)) U2)
       (= (or (not N2) (<= R2 1)) S3)
       (= (or (not N2) (<= R2 D)) S2)
       (= (or (not N2) (<= P2 B)) Q2)
       (= (or (not N2) U3) V3)
       (= (or (not N2) (not O2)) Z3)
       (= a!6 Y8)
       (= (or (not S7) (<= 0 T8)) U8)
       (= (or (not S7) (<= 0 O8)) V8)
       (= (or (not S7) (<= 0 Y7)) S8)
       (= (or (not S7) (<= 0 W7)) R8)
       (= (or (not S7) (<= 0 U7)) Q8)
       (= (or (not S7) (<= O8 L5)) P8)
       (= (or (not S7) (<= Y7 J5)) Z7)
       (= (or (not S7) (<= W7 1)) X8)
       (= (or (not S7) (<= W7 H5)) X7)
       (= (or (not S7) (<= U7 F5)) V7)
       (= (or (not S7) Z8) A9)
       (= (or (not S7) (not T7)) E9)
       (= (and Q2 S2 U2 K3 L3 M3 N3 P3 Q3 R3 S3 T3 V3 Z3) A4)
       (= (and V7 X7 Z7 P8 Q8 R8 S8 U8 V8 W8 X8 Y8 A9 E9) F9)
       (= a!7 Y9)
       (= a!7 E10)
       a!8
       a!9
       (= B10 (and (= I1 1) (= K1 0)))
       (= A10 (and (= I1 0) (= K1 1)))
       (= Z9 (<= 2 (+ I1 K1)))
       (= C1 O2)
       (= B1 C1)
       (= L N2)
       (= K L)
       a!10
       (= G6 T7)
       (= G6 H6)
       (= Q5 a!11)
       (= P5 S7)
       (= P5 Q5)
       (= B1 (<= 2 M1))
       (= H6 (<= 2 Q6))
       a!12
       a!13
       (or C10 (= M1 N9))
       (or C10 (= F1 O9))
       a!14
       (or B10 (= I1 Q9))
       (or B10 (= F1 R9))
       (or (not B10) (= Q9 0))
       a!15
       (or A10 (= K1 K9))
       (or A10 (= F1 M9))
       (or (not A10) (= K9 0))
       a!16
       (or Z9 (= K1 I9))
       (or Z9 (= I1 H9))
       (or (not Z9) (= H9 1))
       a!17
       a!18
       (or Y9 (= F1 D9))
       (or Y9 (= D1 B9))
       (or W (= G2 I2))
       (or (not W) (= G2 H2))
       (or (not V) (= J2 K2))
       (or V (= G2 J2))
       (or (not U) (= L2 M2))
       (or U (= J2 L2))
       (or (not T) (= H3 I3))
       (or (not T) (= E3 G3))
       (or T (= E3 F3))
       (or (not T) (= B3 D3))
       (or T (= B3 C3))
       (or (not T) (= Y2 A3))
       (or T (= Y2 Z2))
       (or (not T) (= V2 X2))
       (or T (= V2 W2))
       (or T (= L2 H3))
       (or (not S) (= X3 Y3))
       (or S (= V2 Y3))
       (or (not S) (= X1 W3))
       (or S (= X1 H3))
       (or (not R) (= D4 E4))
       (or (not R) (= B4 C4))
       (or R (= B3 D4))
       (or R (= Y2 B4))
       (or (not Q) (= G4 H4))
       (or Q (= Y3 H4))
       (or (not Q) (= R1 F4))
       (or Q (= R1 D4))
       (or (not P) (= K4 M4))
       (or P (= H4 K4))
       (or (not P) (= O1 L4))
       (or P (= O1 B4))
       (or O (= B2 K4))
       (or (not O) (= B2 J4))
       (or (not O) (= U1 I4))
       (or O (= U1 E3))
       (or (not N) (= E2 F2))
       (or (not N) (= C2 D2))
       (or N (= W1 E2))
       (or N (= T1 C2))
       (or M (= A2 B2))
       (or (not M) (= Z1 A2))
       (or (not M) (= W1 Y1))
       (or M (= W1 X1))
       (or (not M) (= T1 V1))
       (or M (= T1 U1))
       (or (not M) (= Q1 S1))
       (or M (= Q1 R1))
       (or (not M) (= N1 P1))
       (or M (= N1 O1))
       a!19
       a!20
       (or E10 (= M1 I7))
       (or E10 (= D1 J7))
       a!21
       a!22
       a!23
       (or D10 (= M1 A7))
       (or D10 (= K1 X6))
       (or D10 (= I1 U6))
       (or D10 (= F1 F7))
       (or D10 (= D1 D7))
       (or (not D10) (= F7 0))
       (or (not D10) (= A7 0))
       a!24
       a!25
       (or X9 (= M1 L8))
       (or X9 (= K1 I8))
       (or X9 (= I1 F8))
       (or X9 (= F1 C8))
       (or X9 (= D1 M8))
       (or (not X9) (= L8 0))
       (or (not X9) (= F8 1))
       (or (not X9) (= C8 0))
       a!26
       a!27
       (or W9 (= F1 F10))
       (or W9 (= D1 Q7))
       a!28
       a!29
       (or V9 (= K1 H10))
       (or V9 (= D1 O7))
       a!30
       a!31
       (or U9 (= I1 G10))
       (or U9 (= D1 L7))
       a!32
       a!33
       (or T9 (= M1 I10))
       (or T9 (= D1 J10))
       (or C6 (= M1 J8))
       (or C6 (= D1 N7))
       (or (not C6) (= J8 I10))
       (or (not C6) (= N7 J10))
       (or B6 (= I1 D8))
       (or (not B6) (= D8 G10))
       (or B6 (= M7 N7))
       (or (not B6) (= L7 M7))
       (or A6 (= K1 G8))
       (or (not A6) (= G8 H10))
       (or (not A6) (= O7 P7))
       (or A6 (= M7 P7))
       (or Z5 (= F1 A8))
       (or (not Z5) (= A8 F10))
       (or (not Z5) (= Q7 R7))
       (or Z5 (= P7 R7))
       (or (not Y5) (= M8 N8))
       (or (not Y5) (= K8 L8))
       (or Y5 (= J8 K8))
       (or (not Y5) (= H8 I8))
       (or Y5 (= G8 H8))
       (or (not Y5) (= E8 F8))
       (or Y5 (= D8 E8))
       (or (not Y5) (= B8 C8))
       (or Y5 (= A8 B8))
       (or Y5 (= R7 N8))
       (or (not X5) (= C9 D9))
       (or X5 (= B8 C9))
       (or (not X5) (= B7 B9))
       (or X5 (= B7 N8))
       (or (not W5) (= I9 J9))
       (or (not W5) (= G9 H9))
       (or W5 (= H8 J9))
       (or W5 (= E8 G9))
       (or (not V5) (= L9 M9))
       (or V5 (= C9 L9))
       (or (not V5) (= V6 K9))
       (or V5 (= V6 J9))
       (or (not U5) (= P9 R9))
       (or U5 (= L9 P9))
       (or (not U5) (= S6 Q9))
       (or U5 (= S6 G9))
       (or T5 (= G7 P9))
       (or (not T5) (= G7 O9))
       (or (not T5) (= Y6 N9))
       (or T5 (= Y6 K8))
       (or (not S5) (= J7 K7))
       (or (not S5) (= H7 I7))
       (or S5 (= C7 K7))
       (or S5 (= Z6 H7))
       (or R5 (= E7 G7))
       (or (not R5) (= E7 F7))
       (or (not R5) (= C7 D7))
       (or R5 (= B7 C7))
       (or (not R5) (= Z6 A7))
       (or R5 (= Y6 Z6))
       (or (not R5) (= W6 X6))
       (or R5 (= V6 W6))
       (or (not R5) (= T6 U6))
       (or R5 (= S6 T6))
       (= M1 O3)))
      )
      (state G5
       F5
       I5
       H5
       K5
       J5
       M5
       L5
       O5
       N5
       Q5
       P5
       R5
       S5
       T5
       U5
       V5
       W5
       X5
       Y5
       Z5
       A6
       B6
       C6
       D6
       F6
       E6
       H6
       G6
       J6
       I6
       L6
       K6
       N6
       M6
       P6
       O6
       R6
       Q6
       T6
       S6
       U6
       W6
       V6
       X6
       Z6
       Y6
       A7
       C7
       B7
       D7
       F7
       E7
       G7
       H7
       I7
       K7
       J7
       M7
       L7
       N7
       P7
       O7
       R7
       Q7
       S7
       T7
       U7
       V7
       W7
       X7
       Y7
       Z7
       B8
       A8
       C8
       E8
       D8
       F8
       H8
       G8
       I8
       K8
       J8
       L8
       N8
       M8
       O8
       P8
       Q8
       R8
       S8
       T8
       U8
       V8
       W8
       X8
       Y8
       Z8
       A9
       B9
       D9
       C9
       E9
       F9
       G9
       H9
       J9
       I9
       K9
       M9
       L9
       N9
       O9
       P9
       Q9
       R9
       S9
       X9
       Z9
       A10
       B10
       D10
       J10
       I10
       G10
       H10
       F10
       E10
       C10
       Y9
       W9
       V9
       U9
       T9)
    )
  )
)
(assert
  (forall ( (A Int) (B Int) (C Int) (D Int) (E Int) (F Int) (G Int) (H Int) (I Int) (J Int) (K Bool) (L Bool) (M Bool) (N Bool) (O Bool) (P Bool) (Q Bool) (R Bool) (S Bool) (T Bool) (U Bool) (V Bool) (W Bool) (X Bool) (Y Bool) (Z Int) (A1 Int) (B1 Bool) (C1 Bool) (D1 Int) (E1 Int) (F1 Int) (G1 Int) (H1 Int) (I1 Int) (J1 Int) (K1 Int) (L1 Int) (M1 Int) (N1 Int) (O1 Int) (P1 Int) (Q1 Int) (R1 Int) (S1 Int) (T1 Int) (U1 Int) (V1 Int) (W1 Int) (X1 Int) (Y1 Int) (Z1 Int) (A2 Int) (B2 Int) (C2 Int) (D2 Int) (E2 Int) (F2 Int) (G2 Int) (H2 Int) (I2 Int) (J2 Int) (K2 Int) (L2 Int) (M2 Int) (N2 Bool) (O2 Bool) (P2 Int) (Q2 Bool) (R2 Int) (S2 Bool) (T2 Int) (U2 Bool) (V2 Int) (W2 Int) (X2 Int) (Y2 Int) (Z2 Int) (A3 Int) (B3 Int) (C3 Int) (D3 Int) (E3 Int) (F3 Int) (G3 Int) (H3 Int) (I3 Int) (J3 Int) (K3 Bool) (L3 Bool) (M3 Bool) (N3 Bool) (O3 Int) (P3 Bool) (Q3 Bool) (R3 Bool) (S3 Bool) (T3 Bool) (U3 Bool) (V3 Bool) (W3 Int) (X3 Int) (Y3 Int) (Z3 Bool) (A4 Bool) (B4 Int) (C4 Int) (D4 Int) (E4 Int) (F4 Int) (G4 Int) (H4 Int) (I4 Int) (J4 Int) (K4 Int) (L4 Int) (M4 Int) (N4 Int) (O4 Bool) (P4 Bool) (Q4 Bool) (R4 Bool) (S4 Bool) (T4 Int) (U4 Int) (V4 Int) (W4 Int) (X4 Int) (Y4 Bool) (Z4 Bool) (A5 Bool) (B5 Bool) (C5 Bool) (D5 Bool) (E5 Bool) ) 
    (=>
      (and
        (state A
       B
       C
       D
       E
       F
       G
       H
       I
       J
       K
       L
       M
       N
       O
       P
       Q
       R
       S
       T
       U
       V
       W
       X
       Y
       Z
       A1
       B1
       C1
       D1
       E1
       F1
       G1
       H1
       I1
       J1
       K1
       L1
       M1
       N1
       O1
       P1
       Q1
       R1
       S1
       T1
       U1
       V1
       W1
       X1
       Y1
       Z1
       A2
       B2
       C2
       D2
       E2
       F2
       G2
       H2
       I2
       J2
       K2
       L2
       M2
       N2
       O2
       P2
       Q2
       R2
       S2
       T2
       U2
       V2
       W2
       X2
       Y2
       Z2
       A3
       B3
       C3
       D3
       E3
       F3
       G3
       H3
       I3
       J3
       K3
       L3
       M3
       N3
       O3
       P3
       Q3
       R3
       S3
       T3
       U3
       V3
       W3
       X3
       Y3
       Z3
       A4
       B4
       C4
       D4
       E4
       F4
       G4
       H4
       I4
       J4
       K4
       L4
       M4
       N4
       O4
       P4
       Q4
       R4
       S4
       T4
       U4
       V4
       W4
       X4
       Y4
       Z4
       A5
       B5
       C5
       D5
       E5)
        true
      )
      false
    )
  )
)

(check-sat)
(exit)
